1053 4114
4202 3818
3465 5807
3999 481
4589 3730
7898 5971
2083 8128
3702 3852
1417 6534
8593 8632
3470 3478
2612 5079
3043 8350
2172 7736
4029 7410
3514 1824
4307 7015
1027 3145
8449 6765
832 2838
9268 3601
2849 2303
6163 1279
8722 2155
897 7184
3775 5974
2856 4339
8226 1201
1454 5255
3332 3360
2830 5218
2989 2386
3024 2286
2546 3058
6816 5126
3878 1620
461 3132
9890 2982
5993 2325
8129 5133
1923 4641
4232 4363
264 3563
8567 822
83 4040
7083 8267
9528 3694
7226 8102
274 7439
7343 1908
